100
32
14
4
17
25
2
17
8
16
18
18
27
14
30
13
12
10
20
7
12
19
26
1
23
26
22
9
2
4
9
30
16
1
7
9
15
2
1
28
4
5
8
23
5
23
31
10
21
1
9
18
7
2
32
5
5
4
17
21
6
3
9
6
28
4
4
2
4
1
1
32
31
4
6
20
23
21
10
7
32
30
9
30
7
16
25
25
2
32
6
1
1
5
9
19
29
4
3
22
10
2